          15
          10
           1           9           2
           2           2          10
           3           2          10
           4           2          10
           5           4           2
           6           8           2
           7           8           2
           8           8           3
           9           1           4
          10           4           6
          11           4           6
          12           4           6
          13           3          10
          14           2          11
          15           5           4
